beginners/examples/sequences.out.smt2
sat
(
(define-fun x () (Seq Int) (seq.++ (seq.unit 4) (seq.unit 3) (seq.unit 4) (seq.unit 5)))
(define-fun y () (Seq Int) (seq.++ (seq.unit 4) (seq.unit 3) (seq.unit 4) (seq.unit 5) (seq.unit 4) (seq.unit 3) (seq.unit 4) (seq.unit 5)))
(define-fun z () (Seq Int) (seq.++ (seq.unit 3) (seq.unit 4) (seq.unit 5)))
)
